50 25
   1   20   -1   -1   -1   -1   -1   -1   -1   -1   -1   -1   -1   21   -1   -1    1   -1   -1   -1   -1   -1   -1    8   -1   -1   -1   -1   -1   -1   -1    7   -1   10   -1   -1   20   -1   -1   -1   -1   -1   -1   20   -1   -1   -1   13   -1    2 
   0    1   -1   -1   -1   -1   -1   -1   -1   -1   20   -1   -1   16   23   -1   -1   -1   -1   -1   -1   -1   -1   19   -1    7   22   -1   -1   -1   15   15   -1   21   -1    0   14   -1    2   -1   -1   -1   -1   -1    0   -1   -1   -1   -1   -1 
   0    0    1   14   -1   -1   -1   21    8   23   -1   -1   24   -1   13   21   -1   -1   -1   -1   -1   -1   11   -1   -1   -1   -1   -1   -1   14   -1   -1   -1   -1   -1   -1   -1    3   -1   -1    2   15    2   -1   -1   -1   -1   -1   -1   14 
   0    0    0    1   -1   17    2   -1   21   -1   16   -1   -1    4   -1   -1   -1   -1   -1   -1   19   -1   -1    1   -1   10   -1   -1   -1   -1   -1   14   -1   -1   -1   -1   -1   -1   -1   -1   -1   -1   -1   -1   -1   -1   -1   -1   -1   -1 
   0    0    0    0    1   -1   -1   -1   -1   -1   -1   -1   19   -1   -1   -1    3   23   -1    6   -1   -1   -1   -1   24   -1   -1   -1   -1   -1   -1   -1   -1   -1   -1   -1    8   -1   13   20    7   -1   -1   14   -1   18   -1   -1   23   21 
   0    0    0    0    0    1   23   -1   -1   18   -1    7   21   -1   -1   -1   -1   -1   -1   -1   -1   -1   -1   -1   19   23   -1   -1   17   -1   15   22   -1   -1   24   20   -1   -1   -1   -1   -1   -1   -1   -1   -1    9   12   -1    6   -1 
   0    0    0    0    0    0    1   -1   -1   -1   -1   -1   -1    2   -1   15   -1   -1   14   -1   -1   13   17   -1   -1   -1   -1   -1   20   -1    1   -1   -1   -1    6   -1   -1   -1   -1   -1    6   -1   -1   -1   -1   24   -1   19   -1   -1 
   0    0    0    0    0    0    0    1   -1   -1   -1   -1    9   -1   -1   -1   -1   -1   -1   20   -1   -1   -1   -1   18   -1   -1   -1   -1   -1   21   -1   -1   -1   17   -1   -1    9   -1   -1    7   -1   14   -1   -1   -1   -1   -1   -1    5 
   0    0    0    0    0    0    0    0    1   -1   -1   -1   -1   -1   -1   -1   -1   -1    8   -1   -1   -1   -1   -1   -1   -1   15   -1   -1   -1   -1   -1   -1   -1   -1   14   -1   15   -1    8   16   -1   23   -1   19   -1   15   -1   -1   -1 
   0    0    0    0    0    0    0    0    0    1   -1   -1   -1   -1   11   -1   -1    6   -1   -1   -1   -1   -1   -1   -1    2   -1   -1   -1   -1   -1   -1   11   -1   -1    2   -1   -1    0   -1   -1   -1   -1   -1   -1   -1   -1   -1   -1   -1 
   0    0    0    0    0    0    0    0    0    0    0   -1   -1   -1   -1   -1   -1    9   -1   -1   -1   -1    8   -1   -1   13   23   -1   17   -1   -1   -1   -1   -1   -1   -1   19    4   -1   -1   -1   -1    4   -1   -1   -1   -1   -1   -1   -1 
   0    0    0    0    0    0    0    0    0    0    0    0   14   -1   -1    7   -1   17   -1   -1   -1   -1   -1   -1   11    0   -1   -1   20   -1   -1   -1    1   -1   -1   23   -1   11   -1   -1   -1   -1   -1   -1   -1   -1   -1   -1   -1   -1 
   0    0    0    0    0    0    0    0    0    0    0    0    0   -1   -1   -1   -1   -1    7   -1   -1   -1   21   -1   23   -1   -1   -1   -1   -1   -1    9   23   -1   -1   14   -1   21   -1   -1   -1   21   -1   -1   -1    1   -1   -1   -1   -1 
   0    0    0    0    0    0    0    0    0    0    0    0    0    0   -1   -1   -1   -1   -1    7   21   -1   -1   18   16   24    7   -1   -1   -1   -1   -1   -1   -1   -1   -1   -1   -1   -1   -1   -1   -1   -1   -1   -1   -1   -1   -1   -1   -1 
   0    0    0    0    0    0    0    0    0    0    0    0    0    0    0   -1   -1    0   -1   -1   22   -1   -1   16   -1   -1   -1   -1   -1   -1   -1   -1   -1   -1   -1   -1   -1   -1   -1    0   -1   -1   -1   -1   -1   -1   -1   -1    5   -1 
   0    0    0    0    0    0    0    0    0    0    0    0    0    0    0    0   -1   16   -1   -1   -1   -1   -1   -1   -1   -1   22   -1   -1   -1   -1   -1   -1   -1   -1   -1   -1   -1   -1   -1   -1   -1   -1   -1   -1   -1   -1   -1   -1   -1 
   0    0    0    0    0    0    0    0    0    0    0    0    0    0    0    0    0   15   -1   -1    7   -1   -1   -1   17   -1   -1   -1   -1   -1   -1   16   -1   -1   -1   -1   -1   -1   -1   -1   -1    2   14   -1    0   -1   -1   -1   -1   -1 
   0    0    0    0    0    0    0    0    0    0    0    0    0    0    0    0    0    0   -1   -1   -1   -1   -1   -1   -1   -1   -1   -1   -1   -1   24   -1   -1   -1   -1   -1   -1   -1   -1   -1   -1   -1   -1   -1   -1   -1   -1   -1   -1   -1 
   0    0    0    0    0    0    0    0    0    0    0    0    0    0    0    0    0    0    0   -1    7   -1   -1    7    9   -1   -1   -1   -1   -1   -1   11   -1   -1   20   -1   -1   -1   17   -1   -1   -1   -1   -1   -1   -1   -1   11   -1   13 
   0    0    0    0    0    0    0    0    0    0    0    0    0    0    0    0    0    0    0    0   -1   12   -1   -1   -1   -1   -1   -1   -1   -1   -1   -1   -1   -1   -1   16   -1   -1   -1    8    7   -1   -1   -1   -1   -1    2   -1   -1   -1 
   0    0    0    0    0    0    0    0    0    0    0    0    0    0    0    0    0    0    0    0    0   -1   -1   -1   -1   -1   18   -1   -1   -1   -1   -1   -1   -1   15    2   -1   -1   -1   -1   -1    9   -1   -1   -1   -1   -1   -1   -1   13 
   0    0    0    0    0    0    0    0    0    0    0    0    0    0    0    0    0    0    0    0    0    0   -1   -1   -1   13   -1   -1    4   15   -1   -1   -1   -1   -1   -1   -1   -1   -1   -1   -1   -1   -1   23   -1   -1   -1   -1   -1   -1 
   0    0    0    0    0    0    0    0    0    0    0    0    0    0    0    0    0    0    0    0    0    0    0   -1   -1   23   -1   -1   19   -1   -1   -1   -1    5   -1   13   -1   -1   -1   12   -1   -1   -1   23   -1   10   -1   -1    1   -1 
   0    0    0    0    0    0    0    0    0    0    0    0    0    0    0    0    0    0    0    0    0    0    0    0   -1    8   -1    7   -1   -1   -1   -1   -1   -1   -1   -1   -1   -1   -1   -1   -1   17   19   -1   -1   -1   -1   -1   -1   -1 
   0    0    0    0    0    0    0    0    0    0    0    0    0    0    0    0    0    0    0    0    0    0    0    0    0   -1   -1   -1   -1    7   -1   24   -1   -1   -1    4   -1   -1   -1   -1   -1   21   11   -1   -1   12   -1   -1   -1   -1 
   0    0    0    0    0    0    0    0    0    0    0    0    0    0    0    0    0    0    0    0    0    0    0    0    0    0   -1   -1   20   16    2   -1   -1   -1   -1   -1   -1   -1   -1   -1   -1   -1   -1   -1   -1   -1   -1   -1    5   -1 
   0    0    0    0    0    0    0    0    0    0    0    0    0    0    0    0    0    0    0    0    0    0    0    0    0    0    0   -1   -1   14   -1   -1   -1   -1   -1    3   -1   -1   -1   -1   -1   -1   -1   -1   -1   -1   -1   -1   -1   -1 
   0    0    0    0    0    0    0    0    0    0    0    0    0    0    0    0    0    0    0    0    0    0    0    0    0    0    0    0   10   -1   -1   -1   -1   -1   -1   -1   -1   -1    1   -1   20   -1   11   -1   -1   -1   -1   -1   -1   -1 
   0    0    0    0    0    0    0    0    0    0    0    0    0    0    0    0    0    0    0    0    0    0    0    0    0    0    0    0    0   -1   -1   -1   -1    0   -1   -1   -1   11   -1   -1   19   -1    2   19   -1   -1   -1   -1   -1   -1 
   0    0    0    0    0    0    0    0    0    0    0    0    0    0    0    0    0    0    0    0    0    0    0    0    0    0    0    0    0    0   -1   -1   -1   -1   -1   -1   -1   14    7    9   -1   -1    1   -1   -1   -1   -1   -1   15   -1 
   0    0    0    0    0    0    0    0    0    0    0    0    0    0    0    0    0    0    0    0    0    0    0    0    0    0    0    0    0    0    0   -1    9   -1   -1   -1   -1   -1   -1   -1   -1   -1    4   11   -1   -1   -1   -1   -1   -1 
   0    0    0    0    0    0    0    0    0    0    0    0    0    0    0    0    0    0    0    0    0    0    0    0    0    0    0    0    0    0    0    0   -1   24    2   -1   -1   22    6    5   -1   -1   -1    4   -1   -1   -1   -1   -1   -1 
   0    0    0    0    0    0    0    0    0    0    0    0    0    0    0    0    0    0    0    0    0    0    0    0    0    0    0    0    0    0    0    0    0   -1   -1   -1   -1   -1   12   -1   -1    6   -1   -1   -1   -1   -1   -1   10   -1 
   0    0    0    0    0    0    0    0    0    0    0    0    0    0    0    0    0    0    0    0    0    0    0    0    0    0    0    0    0    0    0    0    0    0   -1   -1    3   -1   -1   -1   12   -1   -1   -1   -1   21   -1   -1   -1   -1 
   0    0    0    0    0    0    0    0    0    0    0    0    0    0    0    0    0    0    0    0    0    0    0    0    0    0    0    0    0    0    0    0    0    0    0   -1   -1   23   -1   -1    5   -1   -1    3   -1   -1   -1   -1   16   -1 
   0    0    0    0    0    0    0    0    0    0    0    0    0    0    0    0    0    0    0    0    0    0    0    0    0    0    0    0    0    0    0    0    0    0    0    0   -1   -1    3   -1   -1   -1   -1   21   11   -1   -1   -1    7   -1 
   0    0    0    0    0    0    0    0    0    0    0    0    0    0    0    0    0    0    0    0    0    0    0    0    0    0    0    0    0    0    0    0    0    0    0    0    0   -1   -1   -1   14   -1   -1   22   -1   -1   -1   -1   -1   -1 
   0    0    0    0    0    0    0    0    0    0    0    0    0    0    0    0    0    0    0    0    0    0    0    0    0    0    0    0    0    0    0    0    0    0    0    0    0    0   -1   -1   -1   -1   -1   -1   -1   15   -1   -1   -1   -1 
   0    0    0    0    0    0    0    0    0    0    0    0    0    0    0    0    0    0    0    0    0    0    0    0    0    0    0    0    0    0    0    0    0    0    0    0    0    0    0   -1   -1   -1   -1   -1   -1   -1   -1   -1   -1   -1 
   0    0    0    0    0    0    0    0    0    0    0    0    0    0    0    0    0    0    0    0    0    0    0    0    0    0    0    0    0    0    0    0    0    0    0    0    0    0    0    0   -1   -1   -1    4   -1    2   -1   -1   -1   -1 
   0    0    0    0    0    0    0    0    0    0    0    0    0    0    0    0    0    0    0    0    0    0    0    0    0    0    0    0    0    0    0    0    0    0    0    0    0    0    0    0    0   -1   -1    6   -1   -1   -1   -1   -1   -1 
   0    0    0    0    0    0    0    0    0    0    0    0    0    0    0    0    0    0    0    0    0    0    0    0    0    0    0    0    0    0    0    0    0    0    0    0    0    0    0    0    0    0   -1   -1   11   -1   -1   11   15   -1 
   0    0    0    0    0    0    0    0    0    0    0    0    0    0    0    0    0    0    0    0    0    0    0    0    0    0    0    0    0    0    0    0    0    0    0    0    0    0    0    0    0    0    0   -1   -1   -1   19   -1   -1   -1 
   0    0    0    0    0    0    0    0    0    0    0    0    0    0    0    0    0    0    0    0    0    0    0    0    0    0    0    0    0    0    0    0    0    0    0    0    0    0    0    0    0    0    0    0   -1   -1   -1   -1   -1   -1 
   0    0    0    0    0    0    0    0    0    0    0    0    0    0    0    0    0    0    0    0    0    0    0    0    0    0    0    0    0    0    0    0    0    0    0    0    0    0    0    0    0    0    0    0    0    9   -1   -1   -1   -1 
   0    0    0    0    0    0    0    0    0    0    0    0    0    0    0    0    0    0    0    0    0    0    0    0    0    0    0    0    0    0    0    0    0    0    0    0    0    0    0    0    0    0    0    0    0    0   -1   -1   -1   -1 
   0    0    0    0    0    0    0    0    0    0    0    0    0    0    0    0    0    0    0    0    0    0    0    0    0    0    0    0    0    0    0    0    0    0    0    0    0    0    0    0    0    0    0    0    0    0    0    9   -1   21 
   0    0    0    0    0    0    0    0    0    0    0    0    0    0    0    0    0    0    0    0    0    0    0    0    0    0    0    0    0    0    0    0    0    0    0    0    0    0    0    0    0    0    0    0    0    0    0    0   -1   -1 
   0    0    0    0    0    0    0    0    0    0    0    0    0    0    0    0    0    0    0    0    0    0    0    0    0    0    0    0    0    0    0    0    0    0    0    0    0    0    0    0    0    0    0    0    0    0    0    0    0   -1 
   0    0    0    0    0    0    0    0    0    0    0    0    0    0    0    0    0    0    0    0    0    0    0    0    0    0    0    0    0    0    0    0    0    0    0    0    0    0    0    0    0    0    0    0    0    0    0    0    0    0 
